WARNING: for repeatability, setting FPU to use double precision
============================[ Problem Statistics ]=============================
|                                                                             |
|  Number of variables:           100                                         |
|  Number of clauses:             449                                         |
|  Parse time:                   0.00 s                                       |
|  Eliminated clauses:           0.00 Mb                                      |
|  Simplification time:          0.00 s                                       |
|                                                                             |
============================[ Search Statistics ]==============================
| Conflicts |          ORIGINAL         |          LEARNT          | Progress |
|           |    Vars  Clauses Literals |    Limit  Clauses Lit/Cl |          |
===============================================================================
|       100 |      99      447     1345 |      163      100      9 |  0.010 % |
|       250 |      99      447     1345 |      180      165      7 |  0.010 % |
===============================================================================
restarts              : 3
conflicts             : 281            (81402 /sec)
decisions             : 354            (0.00 % random) (102549 /sec)
propagations          : 6446           (1867323 /sec)
conflict literals     : 2127           (15.66 % deleted)
Memory used           : 13.00 MB
CPU time              : 0.003452 s

SATISFIABLE
